(set-logic ALL)
(declare-fun i1 () Int)
(declare-fun it5 () Int)
(declare-fun it6 () Int)
(declare-fun i2 () Int)
(declare-fun it7 () Int)
(declare-fun i3 () Int)
(declare-fun i4 () Int)
(declare-fun it8 () Int)
(declare-fun it9 () Int)
(declare-fun i5 () Int)
(declare-fun it10 () Int)
(declare-fun i6 () Int)
(declare-fun it11 () Int)
(declare-fun it12 () Int)
(declare-fun i8 () Int)
(declare-fun it13 () Int)
(declare-fun i9 () Int)
(declare-fun i10 () Int)
(declare-fun it14 () Int)
(declare-fun it213 () Int)
(declare-fun it4 () Int)
(declare-fun it2 () Int)
(declare-fun it217 () Int)
(declare-fun it218 () Int)
(declare-fun it219 () Int)
(declare-fun it220 () Int)
(declare-fun it221 () Int)
(declare-fun it222 () Int)
(declare-fun it223 () Int)
(declare-fun it224 () Int)
(declare-fun it225 () Int)
(declare-fun it226 () Int)
(declare-fun it233 () Int)
(declare-fun it234 () Int)
(declare-fun it235 () Int)
(declare-fun it236 () Int)
(declare-fun it237 () Int)
(declare-fun it238 () Int)
(declare-fun it239 () Int)
(declare-fun it240 () Int)
(declare-fun it241 () Int)
(declare-fun it242 () Int)
(declare-fun it245 () Int)
(declare-fun it246 () Int)
(declare-fun it247 () Int)
(declare-fun it248 () Int)
(declare-fun it249 () Int)
(declare-fun it250 () Int)
(declare-fun it251 () Int)
(declare-fun it252 () Int)
(declare-fun it253 () Int)
(declare-fun it254 () Int)
(declare-fun it257 () Int)
(declare-fun it258 () Int)
(declare-fun it259 () Int)
(declare-fun it260 () Int)
(declare-fun it261 () Int)
(declare-fun it262 () Int)
(declare-fun it229 () Int)
(declare-fun it263 () Int)
(declare-fun it264 () Int)
(declare-fun it265 () Int)
(declare-fun it266 () Int)
(declare-fun it271 () Int)
(declare-fun it272 () Int)
(declare-fun it273 () Int)
(declare-fun it274 () Int)
(declare-fun it275 () Int)
(declare-fun it276 () Int)
(declare-fun it277 () Int)
(declare-fun it278 () Int)
(declare-fun it279 () Int)
(declare-fun it280 () Int)
(declare-fun it283 () Int)
(declare-fun it284 () Int)
(declare-fun it285 () Int)
(declare-fun it286 () Int)
(declare-fun it287 () Int)
(declare-fun it288 () Int)
(declare-fun it289 () Int)
(declare-fun it290 () Int)
(declare-fun it291 () Int)
(declare-fun it292 () Int)
(declare-fun it295 () Int)
(declare-fun it296 () Int)
(declare-fun it297 () Int)
(declare-fun it298 () Int)
(declare-fun it299 () Int)
(declare-fun it300 () Int)
(declare-fun it301 () Int)
(declare-fun it302 () Int)
(declare-fun it303 () Int)
(declare-fun it304 () Int)
(declare-fun it307 () Int)
(declare-fun it308 () Int)
(declare-fun it309 () Int)
(declare-fun it310 () Int)
(declare-fun it311 () Int)
(declare-fun it312 () Int)
(declare-fun it313 () Int)
(declare-fun it314 () Int)
(declare-fun it315 () Int)
(declare-fun it316 () Int)
(declare-fun it319 () Int)
(declare-fun it320 () Int)
(declare-fun it321 () Int)
(declare-fun it322 () Int)
(declare-fun it323 () Int)
(declare-fun it324 () Int)
(declare-fun it325 () Int)
(declare-fun it326 () Int)
(declare-fun it327 () Int)
(declare-fun it328 () Int)
(declare-fun it336 () Int)
(declare-fun it337 () Int)
(declare-fun it338 () Int)
(declare-fun it339 () Int)
(declare-fun it340 () Int)
(declare-fun it341 () Int)
(declare-fun it342 () Int)
(declare-fun it343 () Int)
(declare-fun it344 () Int)
(declare-fun it345 () Int)
(declare-fun it348 () Int)
(declare-fun it349 () Int)
(declare-fun it350 () Int)
(declare-fun it351 () Int)
(declare-fun it352 () Int)
(declare-fun it353 () Int)
(declare-fun it354 () Int)
(declare-fun it355 () Int)
(declare-fun it356 () Int)
(declare-fun it357 () Int)
(assert (= (+ i1 (- 1)) 0))
(assert (= (+ it5 (- 13)) 0))
(assert (= (+ (* i2 (- 1)) it6 (- 12)) 0))
(assert (= (+ (* i3 (- 1)) it7) 0))
(assert (= (+ it8 (* i4 (- 1))) 0))
(assert (= (+ (* i5 (- 1)) it9) 0))
(assert (= (+ (* i6 (- 1)) it10) 0))
(assert (= (+ it11 (- 1)) 0))
(assert (= (+ (* i8 (- 1)) it12) 0))
(assert (= (+ (* i9 (- 1)) it13) 0))
(assert (= (+ it14 (* i10 (- 1))) 0))
(assert (let ((a!1 (+ (+ 0 it14)
              (* (+ 0 it11) (exp 2 (+ it213 (- 1))) (+ 0 (- 2)))))
      (a!2 (>= (+ (+ it14 (* it11 (- 2))) (- 1)) 0)))
  (and (> it2 0)
       (> it14 0)
       (>= (+ a!1 (+ 0 (- 1))) (+ 0 0))
       a!2
       (>= (+ (* it5 (- 1)) 13) 0)
       (>= (+ (* it11 2) (- 1)) 0)
       (>= (+ it11 (- 1)) 0)
       (>= (+ it14 (* it11 (- 1))) 0)
       (>= (* it4 (- 1)) 0)
       (>= (+ it5 (- 13)) 0)
       (>= (* it11 2) 0)
       (> it11 0)
       (>= a!1 (+ 0 0))
       (>= (+ it14 (* it11 (- 2))) 0)
       (>= (+ it213 (- 1)) 0))))
(assert (= (+ (* it5 (- 1)) it217) 0))
(assert (= (+ (* it213 (- 14)) (* it6 (- 1)) it218) 0))
(assert (= (+ it219 (* it4 (- 1))) 0))
(assert (let ((a!1 (+ (+ 0 it220)
              (* (+ 0 it11) (exp 2 (+ it213 (- 1))) (+ 0 (- 2))))))
  (= a!1 (+ 0 0))))
(assert (let ((a!1 (+ (* (+ 0 it11) (exp 2 (+ it213 (- 1))) (+ 0 (- 2)))
              (+ 0 it221)
              (+ 0 (- 1)))))
  (= a!1 (+ 0 0))))
(assert (= (+ (* it2 (- 1)) it222) 0))
(assert (= (+ (+ 0 it223) (* (+ 0 it11) (exp 2 it213) (+ 0 (- 1))))
   (+ 0 0)))
(assert (let ((a!1 (+ (* (+ 0 it11) (exp 2 (+ it213 (- 1))) (+ 0 (- 2)))
              (+ 0 it224))))
  (= a!1 (+ 0 0))))
(assert (let ((a!1 (+ (* (+ 0 it11) (exp 2 (+ it213 (- 1))) (+ 0 (- 2)))
              (+ 0 it225))))
  (= a!1 (+ 0 0))))
(assert (= (+ (* it14 (- 1)) it226) 0))
(assert (and (= (+ it217 (- 13)) 0) (> it226 0) (>= (+ it223 (- 1)) 0)))
(assert (= (+ it233 (- 14)) 0))
(assert (= (+ it234 (* it218 (- 1)) (- 1)) 0))
(assert (= (+ it235 (* it219 (- 1))) 0))
(assert (= (+ it236 (* it220 (- 1))) 0))
(assert (= (+ it237 (* it221 (- 1))) 0))
(assert (= (+ it238 (* it222 (- 1))) 0))
(assert (= (+ it239 (* it223 (- 1))) 0))
(assert (= (+ it240 (* it224 (- 1))) 0))
(assert (= (+ (* it225 (- 1)) it241) 0))
(assert (= (+ (* it226 (- 1)) it242) 0))
(assert (and (<= (+ (* it239 2) (* it242 (- 1))) 0) (= (+ it233 (- 14)) 0)))
(assert (= (+ it245 (- 16)) 0))
(assert (= (+ it246 (* it234 (- 1)) (- 1)) 0))
(assert (= (+ it247 (* it235 (- 1))) 0))
(assert (= (+ it248 (* it239 (- 2))) 0))
(assert (= (+ (* it239 (- 2)) it249 (- 1)) 0))
(assert (= (+ it250 (* it238 (- 1))) 0))
(assert (= (+ (* it239 (- 1)) it251) 0))
(assert (= (+ it252 (* it240 (- 1))) 0))
(assert (= (+ it253 (* it241 (- 1))) 0))
(assert (= (+ (* it242 (- 1)) it254) 0))
(assert (and (>= (+ it248 (- 1)) 0)
     (<= (+ it248 (* it254 (- 1))) 0)
     (= (+ it245 (- 16)) 0)))
(assert (= (+ it257 (- 20)) 0))
(assert (= (+ it258 (* it246 (- 1)) (- 3)) 0))
(assert (= (+ it259 (* it247 (- 1))) 0))
(assert (= (+ (* it248 (- 1)) it260) 0))
(assert (= (+ it261 (* it249 (- 1))) 0))
(assert (= (+ (* it229 (- 1)) it262) 0))
(assert (= (+ it263 (* it251 (- 1))) 0))
(assert (= (+ it264 (* it252 (- 1))) 0))
(assert (= (+ it265 (* it253 (- 1))) 0))
(assert (= (+ it266 (* it254 (- 1))) 0))
(assert (and (> it262 0) (= (+ it257 (- 20)) 0)))
(assert (= (+ it271 (- 17)) 0))
(assert (= (+ (* it258 (- 1)) it272 (- 1)) 0))
(assert (= (+ (* it259 (- 1)) it273) 0))
(assert (= (+ it274 (* it260 (- 1))) 0))
(assert (= (+ (* it261 (- 1)) it275) 0))
(assert (= (+ (* it262 (- 1)) it276) 0))
(assert (= (+ it277 (* it263 (- 1))) 0))
(assert (= (+ it278 (* it260 (- 1))) 0))
(assert (= (+ (* it265 (- 1)) it279) 0))
(assert (= (+ it280 (* it266 (- 1))) 0))
(assert (and (= (+ it271 (- 17)) 0) (> (+ (* it280 (- 1)) it275) 0)))
(assert (= (+ it283 (- 22)) 0))
(assert (= (+ it284 (* it272 (- 1)) (- 1)) 0))
(assert (= (+ it285 (* it273 (- 1))) 0))
(assert (= (+ (* it274 (- 1)) it286) 0))
(assert (= (+ it287 (* it275 (- 1))) 0))
(assert (= (+ it288 (* it276 (- 1))) 0))
(assert (= (+ it289 (* it277 (- 1))) 0))
(assert (= (+ it290 (* it278 (- 1))) 0))
(assert (= (+ (* it278 (- 1)) it291) 0))
(assert (= (+ (* it280 (- 1)) it292) 0))
(assert (and (= (+ it283 (- 22)) 0) (< (+ it289 (* it291 (- 1))) 0)))
(assert (= (+ it295 (- 26)) 0))
(assert (= (+ it296 (* it284 (- 1)) (- 1)) 0))
(assert (= (+ it297 (* it285 (- 1))) 0))
(assert (= (+ it298 (* it286 (- 1))) 0))
(assert (= (+ it299 (* it287 (- 1))) 0))
(assert (= (+ it300 (* it288 (- 1))) 0))
(assert (= (+ (* it289 (- 1)) it301) 0))
(assert (= (+ it302 (* it290 (- 1))) 0))
(assert (= (+ it303 (* it291 (- 1))) 0))
(assert (= (+ it304 (* it292 (- 1))) 0))
(assert (and (= (+ it295 (- 26)) 0)
     (>= (+ it301 (- 1)) 0)
     (<= (+ (* it304 (- 1)) it301) 0)))
(assert (= (+ it307 (- 27)) 0))
(assert (= (+ it308 (* it296 (- 1)) (- 1)) 0))
(assert (= (+ it309 (* it297 (- 1))) 0))
(assert (= (+ it310 (* it298 (- 1))) 0))
(assert (= (+ (* it299 (- 1)) it311) 0))
(assert (= (+ it312 (* it300 (- 1))) 0))
(assert (= (+ it313 (* it301 (- 1))) 0))
(assert (= (+ (* it302 (- 1)) it314) 0))
(assert (= (+ it315 (* it303 (- 1))) 0))
(assert (= (+ it316 (* it304 (- 1))) 0))
(assert (and (= (+ it307 (- 27)) 0)
     (<= (+ it315 (* it316 (- 1))) 0)
     (>= (+ it315 (- 1)) 0)))
(assert (= (+ it319 (- 13)) 0))
(assert (= (+ (* it308 (- 1)) it320 (- 1)) 0))
(assert (= (+ it321 (* it309 (- 1))) 0))
(assert (= (+ it322 (* it310 (- 1))) 0))
(assert (= (+ it323 (* it311 (- 1))) 0))
(assert (= (+ it324 (* it312 (- 1))) 0))
(assert (= (+ (* it315 (- 1)) it325) 0))
(assert (= (+ it326 (* it314 (- 1))) 0))
(assert (= (+ (* it315 (- 1)) it327) 0))
(assert (= (+ it328 (* it316 (- 1))) 0))
(assert (and (>= (+ it325 (- 1)) 0) (= (+ it319 (- 13)) 0) (> it328 0)))
(assert (= (+ it336 (- 14)) 0))
(assert (= (+ it337 (* it320 (- 1)) (- 1)) 0))
(assert (= (+ (* it321 (- 1)) it338) 0))
(assert (= (+ (* it322 (- 1)) it339) 0))
(assert (= (+ it340 (* it323 (- 1))) 0))
(assert (= (+ (* it324 (- 1)) it341) 0))
(assert (= (+ (* it325 (- 1)) it342) 0))
(assert (= (+ it343 (* it326 (- 1))) 0))
(assert (= (+ it344 (* it327 (- 1))) 0))
(assert (= (+ (* it328 (- 1)) it345) 0))
(assert (and (= (+ it336 (- 14)) 0) (> (+ (* it345 (- 1)) (* it342 2)) 0)))
(assert (= (+ it348 (- 17)) 0))
(assert (= (+ (* it337 (- 1)) it349 (- 1)) 0))
(assert (= (+ it350 (* it338 (- 1))) 0))
(assert (= (+ it351 (* it342 (- 2))) 0))
(assert (= (+ (* it342 (- 2)) it352 (- 1)) 0))
(assert (= (+ it353 (* it341 (- 1))) 0))
(assert (= (+ it354 (* it342 (- 1))) 0))
(assert (= (+ (* it342 (- 1)) it355) 0))
(assert (= (+ it356 (* it344 (- 1))) 0))
(assert (= (+ it357 (* it345 (- 1))) 0))
(check-sat)
